8966
1 1 1 1 1 1 1 1 1 1
2 8 8 1 6 8 4 3 0 3 9 3 7 9 1 2 2 3 4 2 5 6 0 6 6 6 1 6 7 5 4 3 7 3 9 0 2 0 7 1 9 0 9 2 0 8 8 9 1 5 7 3 9 0 3 9 0 7 9 3 5 8 6 4 6 9 5 1 5 3 5 2 8 7 8 0 6 7 3 9 0 4 1 4 5 0 4 6 6 6